; benchmark generated from python API
(set-info :status unknown)
(declare-fun x_v0q0.i () Real)
(declare-fun x_v0q0.r () Real)
(declare-fun x_v0q1.i () Real)
(declare-fun x_v0q1.r () Real)
(declare-fun x_v0q2.i () Real)
(declare-fun x_v0q2.r () Real)
(declare-fun x_v0q3.i () Real)
(declare-fun x_v0q3.r () Real)
(declare-fun x_v1q0.i () Real)
(declare-fun x_v1q0.r () Real)
(declare-fun x_v1q1.i () Real)
(declare-fun x_v1q1.r () Real)
(declare-fun x_v1q2.i () Real)
(declare-fun x_v1q2.r () Real)
(declare-fun x_v1q3.i () Real)
(declare-fun x_v1q3.r () Real)
(declare-fun x_v3q0.i () Real)
(declare-fun x_v3q0.r () Real)
(declare-fun x_v3q1.i () Real)
(declare-fun x_v3q1.r () Real)
(declare-fun x_v3q2.i () Real)
(declare-fun x_v3q2.r () Real)
(declare-fun x_v3q3.i () Real)
(declare-fun x_v3q3.r () Real)
(declare-fun x_v4q0.i () Real)
(declare-fun x_v4q0.r () Real)
(declare-fun x_v4q1.i () Real)
(declare-fun x_v4q1.r () Real)
(declare-fun x_v4q2.i () Real)
(declare-fun x_v4q2.r () Real)
(declare-fun x_v4q3.i () Real)
(declare-fun x_v4q3.r () Real)
(declare-fun f (Int) Int)
(declare-fun x_v6q0.i () Real)
(declare-fun x_v6q0.r () Real)
(declare-fun x_v6q1.i () Real)
(declare-fun x_v6q1.r () Real)
(declare-fun x_v6q2.i () Real)
(declare-fun x_v6q2.r () Real)
(declare-fun x_v6q3.i () Real)
(declare-fun x_v6q3.r () Real)
(declare-fun x_v7q0.i () Real)
(declare-fun x_v7q0.r () Real)
(declare-fun x_v7q1.i () Real)
(declare-fun x_v7q1.r () Real)
(declare-fun x_v7q2.i () Real)
(declare-fun x_v7q2.r () Real)
(declare-fun x_v7q3.i () Real)
(declare-fun x_v7q3.r () Real)
(declare-fun Pr_x_v7_3 () Real)
(declare-fun Pr_x_v7_2 () Real)
(declare-fun Pr_x_v7_1 () Real)
(declare-fun Pr_x_v7_0 () Real)
(declare-fun Pr_x_v7_sum () Real)
(declare-fun meas_cert () Bool)
(declare-fun meas_x () Int)
(declare-fun x_v0c () Int)
(declare-fun grover_rev_ret () Int)
(assert
 (and (= x_v0q0.r 0.0) (= 0.0 x_v0q0.i)))
(assert
 (and (= x_v0q1.r 0.0) (= 0.0 x_v0q1.i)))
(assert
 (and (= x_v0q2.r 1.0) (= 0.0 x_v0q2.i)))
(assert
 (and (= x_v0q3.r 0.0) (= 0.0 x_v0q3.i)))
(assert
 (let ((?x174 (* (/ 1.0 2.0) x_v0q3.i)))
 (let ((?x173 (* (/ 1.0 2.0) x_v0q2.i)))
 (let ((?x171 (* (/ 1.0 2.0) x_v0q1.i)))
 (let ((?x170 (* (/ 1.0 2.0) x_v0q0.i)))
 (let ((?x167 (* (/ 1.0 2.0) x_v0q3.r)))
 (let ((?x166 (* (/ 1.0 2.0) x_v0q2.r)))
 (let ((?x164 (* (/ 1.0 2.0) x_v0q1.r)))
 (let ((?x163 (* (/ 1.0 2.0) x_v0q0.r)))
 (and (= x_v1q0.r (+ ?x163 ?x164 ?x166 ?x167)) (= x_v1q0.i (+ ?x170 ?x171 ?x173 ?x174))))))))))))
(assert
 (let ((?x188 (* (- (/ 1.0 2.0)) x_v0q3.i)))
 (let ((?x173 (* (/ 1.0 2.0) x_v0q2.i)))
 (let ((?x186 (* (- (/ 1.0 2.0)) x_v0q1.i)))
 (let ((?x170 (* (/ 1.0 2.0) x_v0q0.i)))
 (let ((?x183 (* (- (/ 1.0 2.0)) x_v0q3.r)))
 (let ((?x166 (* (/ 1.0 2.0) x_v0q2.r)))
 (let ((?x181 (* (- (/ 1.0 2.0)) x_v0q1.r)))
 (let ((?x163 (* (/ 1.0 2.0) x_v0q0.r)))
 (and (= x_v1q1.r (+ ?x163 ?x181 ?x166 ?x183)) (= x_v1q1.i (+ ?x170 ?x186 ?x173 ?x188))))))))))))
(assert
 (let ((?x188 (* (- (/ 1.0 2.0)) x_v0q3.i)))
 (let ((?x194 (* (- (/ 1.0 2.0)) x_v0q2.i)))
 (let ((?x171 (* (/ 1.0 2.0) x_v0q1.i)))
 (let ((?x170 (* (/ 1.0 2.0) x_v0q0.i)))
 (let ((?x183 (* (- (/ 1.0 2.0)) x_v0q3.r)))
 (let ((?x172 (* (- (/ 1.0 2.0)) x_v0q2.r)))
 (let ((?x164 (* (/ 1.0 2.0) x_v0q1.r)))
 (let ((?x163 (* (/ 1.0 2.0) x_v0q0.r)))
 (and (= x_v1q2.r (+ ?x163 ?x164 ?x172 ?x183)) (= x_v1q2.i (+ ?x170 ?x171 ?x194 ?x188))))))))))))
(assert
 (let ((?x174 (* (/ 1.0 2.0) x_v0q3.i)))
 (let ((?x194 (* (- (/ 1.0 2.0)) x_v0q2.i)))
 (let ((?x186 (* (- (/ 1.0 2.0)) x_v0q1.i)))
 (let ((?x170 (* (/ 1.0 2.0) x_v0q0.i)))
 (let ((?x167 (* (/ 1.0 2.0) x_v0q3.r)))
 (let ((?x172 (* (- (/ 1.0 2.0)) x_v0q2.r)))
 (let ((?x181 (* (- (/ 1.0 2.0)) x_v0q1.r)))
 (let ((?x163 (* (/ 1.0 2.0) x_v0q0.r)))
 (and (= x_v1q3.r (+ ?x163 ?x181 ?x172 ?x167)) (= x_v1q3.i (+ ?x170 ?x186 ?x194 ?x174))))))))))))
(assert
 (and (= x_v3q0.r x_v1q0.r) (= x_v3q0.i x_v1q0.i)))
(assert
 (and (= x_v3q1.r (* (- 1.0) x_v1q1.r)) (= x_v3q1.i (* (- 1.0) x_v1q1.i))))
(assert
 (and (= x_v3q2.r (* (- 1.0) x_v1q2.r)) (= x_v3q2.i (* (- 1.0) x_v1q2.i))))
(assert
 (and (= x_v3q3.r (* (- 1.0) x_v1q3.r)) (= x_v3q3.i (* (- 1.0) x_v1q3.i))))
(assert
 (let ((?x244 (* (/ 1.0 2.0) x_v3q3.i)))
 (let ((?x243 (* (/ 1.0 2.0) x_v3q2.i)))
 (let ((?x241 (* (/ 1.0 2.0) x_v3q1.i)))
 (let ((?x240 (* (/ 1.0 2.0) x_v3q0.i)))
 (let ((?x218 (* (/ 1.0 2.0) x_v3q3.r)))
 (let ((?x217 (* (/ 1.0 2.0) x_v3q2.r)))
 (let ((?x214 (* (/ 1.0 2.0) x_v3q1.r)))
 (let ((?x209 (* (/ 1.0 2.0) x_v3q0.r)))
 (and (= x_v4q0.r (+ ?x209 ?x214 ?x217 ?x218)) (= x_v4q0.i (+ ?x240 ?x241 ?x243 ?x244))))))))))))
(assert
 (let ((?x256 (* (- (/ 1.0 2.0)) x_v3q3.i)))
 (let ((?x243 (* (/ 1.0 2.0) x_v3q2.i)))
 (let ((?x254 (* (- (/ 1.0 2.0)) x_v3q1.i)))
 (let ((?x240 (* (/ 1.0 2.0) x_v3q0.i)))
 (let ((?x251 (* (- (/ 1.0 2.0)) x_v3q3.r)))
 (let ((?x217 (* (/ 1.0 2.0) x_v3q2.r)))
 (let ((?x249 (* (- (/ 1.0 2.0)) x_v3q1.r)))
 (let ((?x209 (* (/ 1.0 2.0) x_v3q0.r)))
 (and (= x_v4q1.r (+ ?x209 ?x249 ?x217 ?x251)) (= x_v4q1.i (+ ?x240 ?x254 ?x243 ?x256))))))))))))
(assert
 (let ((?x256 (* (- (/ 1.0 2.0)) x_v3q3.i)))
 (let ((?x262 (* (- (/ 1.0 2.0)) x_v3q2.i)))
 (let ((?x241 (* (/ 1.0 2.0) x_v3q1.i)))
 (let ((?x240 (* (/ 1.0 2.0) x_v3q0.i)))
 (let ((?x251 (* (- (/ 1.0 2.0)) x_v3q3.r)))
 (let ((?x216 (* (- (/ 1.0 2.0)) x_v3q2.r)))
 (let ((?x214 (* (/ 1.0 2.0) x_v3q1.r)))
 (let ((?x209 (* (/ 1.0 2.0) x_v3q0.r)))
 (and (= x_v4q2.r (+ ?x209 ?x214 ?x216 ?x251)) (= x_v4q2.i (+ ?x240 ?x241 ?x262 ?x256))))))))))))
(assert
 (let ((?x244 (* (/ 1.0 2.0) x_v3q3.i)))
 (let ((?x262 (* (- (/ 1.0 2.0)) x_v3q2.i)))
 (let ((?x254 (* (- (/ 1.0 2.0)) x_v3q1.i)))
 (let ((?x240 (* (/ 1.0 2.0) x_v3q0.i)))
 (let ((?x218 (* (/ 1.0 2.0) x_v3q3.r)))
 (let ((?x216 (* (- (/ 1.0 2.0)) x_v3q2.r)))
 (let ((?x249 (* (- (/ 1.0 2.0)) x_v3q1.r)))
 (let ((?x209 (* (/ 1.0 2.0) x_v3q0.r)))
 (and (= x_v4q3.r (+ ?x209 ?x249 ?x216 ?x218)) (= x_v4q3.i (+ ?x240 ?x254 ?x262 ?x244))))))))))))
(assert
 (let ((?x114 (+ 1.0 (* (- 2.0) (ite (= (f 0) 1) 1.0 0.0)))))
 (and (= x_v6q0.r (* x_v4q0.r ?x114)) (= x_v6q0.i (* x_v4q0.i ?x114)))))
(assert
 (let ((?x90 (+ 1.0 (* (- 2.0) (ite (= (f 1) 1) 1.0 0.0)))))
 (and (= x_v6q1.r (* x_v4q1.r ?x90)) (= x_v6q1.i (* x_v4q1.i ?x90)))))
(assert
 (let ((?x100 (+ 1.0 (* (- 2.0) (ite (= (f 2) 1) 1.0 0.0)))))
 (and (= x_v6q2.r (* x_v4q2.r ?x100)) (= x_v6q2.i (* x_v4q2.i ?x100)))))
(assert
 (let ((?x124 (+ 1.0 (* (- 2.0) (ite (= (f 3) 1) 1.0 0.0)))))
 (and (= x_v6q3.r (* x_v4q3.r ?x124)) (= x_v6q3.i (* x_v4q3.i ?x124)))))
(assert
 (let ((?x320 (* (/ 1.0 2.0) x_v6q3.i)))
 (let ((?x310 (* (/ 1.0 2.0) x_v6q2.i)))
 (let ((?x318 (* (/ 1.0 2.0) x_v6q1.i)))
 (let ((?x306 (* (/ 1.0 2.0) x_v6q0.i)))
 (let ((?x302 (* (/ 1.0 2.0) x_v6q3.r)))
 (let ((?x301 (* (/ 1.0 2.0) x_v6q2.r)))
 (let ((?x83 (* (/ 1.0 2.0) x_v6q1.r)))
 (let ((?x297 (* (/ 1.0 2.0) x_v6q0.r)))
 (and (= x_v7q0.r (+ ?x297 ?x83 ?x301 ?x302)) (= x_v7q0.i (+ ?x306 ?x318 ?x310 ?x320))))))))))))
(assert
 (let ((?x319 (* (- (/ 1.0 2.0)) x_v6q3.i)))
 (let ((?x310 (* (/ 1.0 2.0) x_v6q2.i)))
 (let ((?x307 (* (- (/ 1.0 2.0)) x_v6q1.i)))
 (let ((?x306 (* (/ 1.0 2.0) x_v6q0.i)))
 (let ((?x303 (* (- (/ 1.0 2.0)) x_v6q3.r)))
 (let ((?x301 (* (/ 1.0 2.0) x_v6q2.r)))
 (let ((?x300 (* (- (/ 1.0 2.0)) x_v6q1.r)))
 (let ((?x297 (* (/ 1.0 2.0) x_v6q0.r)))
 (and (= x_v7q1.r (+ ?x297 ?x300 ?x301 ?x303)) (= x_v7q1.i (+ ?x306 ?x307 ?x310 ?x319))))))))))))
(assert
 (let ((?x319 (* (- (/ 1.0 2.0)) x_v6q3.i)))
 (let ((?x325 (* (- (/ 1.0 2.0)) x_v6q2.i)))
 (let ((?x318 (* (/ 1.0 2.0) x_v6q1.i)))
 (let ((?x306 (* (/ 1.0 2.0) x_v6q0.i)))
 (let ((?x303 (* (- (/ 1.0 2.0)) x_v6q3.r)))
 (let ((?x118 (* (- (/ 1.0 2.0)) x_v6q2.r)))
 (let ((?x83 (* (/ 1.0 2.0) x_v6q1.r)))
 (let ((?x297 (* (/ 1.0 2.0) x_v6q0.r)))
 (and (= x_v7q2.r (+ ?x297 ?x83 ?x118 ?x303)) (= x_v7q2.i (+ ?x306 ?x318 ?x325 ?x319))))))))))))
(assert
 (let ((?x320 (* (/ 1.0 2.0) x_v6q3.i)))
 (let ((?x325 (* (- (/ 1.0 2.0)) x_v6q2.i)))
 (let ((?x307 (* (- (/ 1.0 2.0)) x_v6q1.i)))
 (let ((?x306 (* (/ 1.0 2.0) x_v6q0.i)))
 (let ((?x302 (* (/ 1.0 2.0) x_v6q3.r)))
 (let ((?x118 (* (- (/ 1.0 2.0)) x_v6q2.r)))
 (let ((?x300 (* (- (/ 1.0 2.0)) x_v6q1.r)))
 (let ((?x297 (* (/ 1.0 2.0) x_v6q0.r)))
 (and (= x_v7q3.r (+ ?x297 ?x300 ?x118 ?x302)) (= x_v7q3.i (+ ?x306 ?x307 ?x325 ?x320))))))))))))
(assert
 (and (and (<= Pr_x_v7_0 1.0) (>= Pr_x_v7_0 0.0)) (and (<= Pr_x_v7_1 1.0) (>= Pr_x_v7_1 0.0)) (and (<= Pr_x_v7_2 1.0) (>= Pr_x_v7_2 0.0)) (and (<= Pr_x_v7_3 1.0) (>= Pr_x_v7_3 0.0))))
(assert
 (= Pr_x_v7_sum (+ Pr_x_v7_0 Pr_x_v7_1 Pr_x_v7_2 Pr_x_v7_3)))
(assert
 (= Pr_x_v7_sum 1.0))
(assert
 (= Pr_x_v7_0 (+ (+ (^ x_v7q0.r 2.0) (^ x_v7q0.i 2.0)))))
(assert
 (= Pr_x_v7_1 (+ (+ (^ x_v7q1.r 2.0) (^ x_v7q1.i 2.0)))))
(assert
 (= Pr_x_v7_2 (+ (+ (^ x_v7q2.r 2.0) (^ x_v7q2.i 2.0)))))
(assert
 (= Pr_x_v7_3 (+ (+ (^ x_v7q3.r 2.0) (^ x_v7q3.i 2.0)))))
(assert
 (let (($x159 (= Pr_x_v7_3 1.0)))
 (let (($x274 (= Pr_x_v7_2 1.0)))
 (let (($x208 (= Pr_x_v7_1 1.0)))
 (let (($x273 (= Pr_x_v7_0 1.0)))
 (let (($x261 (or $x273 $x208 $x274 $x159)))
 (let (($x242 (= meas_cert true)))
 (and (=> $x261 $x242) (=> $x242 $x261)))))))))
(assert
 (and (=> (= Pr_x_v7_0 1.0) (= meas_x 0)) (=> (= meas_x 0) (= Pr_x_v7_0 1.0))))
(assert
 (and (=> (= Pr_x_v7_1 1.0) (= meas_x 1)) (=> (= meas_x 1) (= Pr_x_v7_1 1.0))))
(assert
 (and (=> (= Pr_x_v7_2 1.0) (= meas_x 2)) (=> (= meas_x 2) (= Pr_x_v7_2 1.0))))
(assert
 (and (=> (= Pr_x_v7_3 1.0) (= meas_x 3)) (=> (= meas_x 3) (= Pr_x_v7_3 1.0))))
(assert
 (=> (= Pr_x_v7_0 0.0) (and (distinct meas_x 0) true)))
(assert
 (=> (= Pr_x_v7_1 0.0) (and (distinct meas_x 1) true)))
(assert
 (=> (= Pr_x_v7_2 0.0) (and (distinct meas_x 2) true)))
(assert
 (=> (= Pr_x_v7_3 0.0) (and (distinct meas_x 3) true)))
(assert
 (= x_v0c meas_x))
(assert
 (= grover_rev_ret x_v0c))
(check-sat)
